-1 -577 0
-497 -573 -65 0
-573 -503 -65 0
74 1 0
-577 0
-65 0
1 0
513 0
129 0
-449 0
-193 0
33 0
-257 0
-97 0
-289 0
-385 0
17 0
49 0
545 0
-161 0
-81 0
-9 0
-177 0
-73 0
-353 0
-273 0
-369 0
-113 0
-209 0
-305 0
-401 0
-481 0
0
